p wcnf 7 24 91
91 1 2 0
91 1 3 0
91 1 4 0
91 1 5 0
91 2 3 0
91 2 4 0
91 2 5 0
91 2 6 0
91 3 5 0
91 3 6 0
91 3 7 0
91 4 5 0
91 4 6 0
91 4 7 0
91 5 6 0
91 5 7 0
91 6 7 0
4 -1 0
3 -2 0
3 -3 0
3 -4 0
2 -5 0
3 -6 0
4 -7 0
